Cars = 1..200;
Options = 1..5;
Classes = 1..23;
sequenceMinCapacity = [0, 0, 0, 0, 0];
sequenceMaxCapacity = [1, 2, 1, 2, 1];
sequenceSize = [2, 3, 3, 5, 5];
numOrdered = [4, 2, 26, 9, 1, 18, 33, 5, 12, 1, 2, 5, 17, 5, 1, 2, 17, 19, 1, 2, 2, 7, 9];
classHasOption = [| true,  true, false,  true, false
                  |false, false, false,  true,  true
                  |false, false, false,  true, false
                  | true, false, false,  true, false
                  |false, false,  true, false,  true
                  | true,  true, false, false, false
                  |false,  true, false, false, false
                  |false, false,  true,  true, false
                  |false, false, false, false,  true
                  | true, false,  true, false,  true
                  | true,  true,  true, false, false
                  | true, false,  true, false, false
                  |false,  true, false,  true, false
                  | true, false, false, false,  true
                  | true, false,  true,  true, false
                  |false,  true,  true, false,  true
                  | true, false, false, false, false
                  |false, false,  true, false, false
                  | true,  true,  true,  true, false
                  | true,  true,  true, false,  true
                  |false,  true,  true,  true, false
                  |false,  true,  true, false, false
                  |false,  true, false, false,  true|];
optionOrdering = [5, 3, 4, 1, 2];
